749 142
60 266
443 502
555 770
326 269
58 199
475 133
495 6
273 897
278 282
699 80
219 656
352 383
78 528
314 825
659 847
500 774
885 634
66 865
305 245
84 138
781 125
614 331
476 269
88 508
270 370
766 772
34 806
6 711
335 347
253 580
389 215
154 295
208 836
822 381
568 761
130 162
524 327
19 592
168 88
729 213
220 691
746 432
108 160
514 124
663 435
564 68
640 818
402 31
62 163
390 290
434 558
144 19
821 863
481 899
146 387
494 167
646 535
539 759
63 18
556 11
828 274
383 405
520 88
776 152
502 46
633 75
846 802
357 335
467 199
104 311
741 742
843 335
544 767
362 2
757 638
188 454
57 249
341 196
135 535
238 650
99 191
113 221
569 209
367 886
2 773
690 821
529 260
727 560
600 89
854 828
356 781
785 805
86 341
161 14
28 422
843 852
554 550
703 260
393 585
